Geographic Exponential Decay
40 5 305 205 6 289 200 231 158 172 194 7 226 105 260 24 278 187 189 150 303 31 54 292 49 122 149 297 160 281 242 156 22 8 225 79 201 259 295 69 56
p edge 320 330
e 0 262 16.0
e 0 307 17.0
e 1 256 9.0
e 1 0 2.0
e 2 3 1.0
e 2 1 4.0
e 4 282 1.0
e 4 2 3.0
e 5 204 31.0
e 5 225 76.0
e 5 306 50.0
e 5 151 59.0
e 5 118 35.0
e 5 4 59.0
e 6 31 99.0
e 6 297 45.0
e 6 170 2.0
e 6 270 16.0
e 6 310 24.0
e 7 226 97.0
e 7 297 78.0
e 7 264 22.0
e 7 166 62.0
e 7 119 66.0
e 8 313 26.0
e 8 316 65.0
e 8 47 53.0
e 8 10 5.0
e 8 125 38.0
e 8 5 82.0
e 9 234 4.0
e 9 8 36.0
e 11 317 5.0
e 11 9 1.0
e 12 248 1.0
e 12 11 1.0
e 13 138 3.0
e 13 12 6.0
e 14 180 10.0
e 14 13 11.0
e 15 235 1.0
e 15 14 12.0
e 16 186 1.0
e 16 15 1.0
e 17 148 1.0
e 17 16 2.0
e 18 299 6.0
e 18 33 16.0
e 18 17 7.0
e 19 87 1.0
e 19 18 12.0
e 20 305 36.0
e 21 117 3.0
e 21 19 2.0
e 22 159 41.0
e 22 305 71.0
e 22 213 88.0
e 22 23 52.0
e 22 214 27.0
e 24 308 77.0
e 24 263 3.0
e 24 305 13.0
e 24 175 98.0
e 24 100 79.0
e 25 72 2.0
e 25 21 4.0
e 26 219 11.0
e 26 25 12.0
e 27 98 1.0
e 27 26 1.0
e 28 197 1.0
e 28 27 2.0
e 29 309 2.0
e 29 28 11.0
e 30 137 1.0
e 30 29 3.0
e 31 32 73.0
e 31 84 1.0
e 31 127 23.0
e 31 34 97.0
e 34 131 20.0
e 35 237 8.0
e 35 30 2.0
e 36 257 1.0
e 36 35 1.0
e 37 261 1.0
e 37 36 1.0
e 38 293 1.0
e 38 37 4.0
e 39 207 12.0
e 39 38 2.0
e 40 133 1.0
e 40 39 1.0
e 41 134 1.0
e 41 40 4.0
e 42 139 1.0
e 42 41 4.0
e 43 44 2.0
e 43 42 3.0
e 45 223 4.0
e 45 43 2.0
e 46 271 2.0
e 46 45 2.0
e 48 49 13.0
e 48 46 3.0
e 49 265 7.0
e 49 280 4.0
e 49 239 62.0
e 49 50 71.0
e 50 51 7.0
e 51 272 1.0
e 52 53 6.0
e 52 48 3.0
e 54 217 100.0
e 54 226 62.0
e 54 294 78.0
e 54 55 65.0
e 54 56 38.0
e 56 85 2.0
e 56 119 62.0
e 56 57 96.0
e 56 249 48.0
e 58 59 1.0
e 58 52 12.0
e 60 69 52.0
e 61 86 1.0
e 61 58 6.0
e 62 172 52.0
e 63 64 4.0
e 63 61 6.0
e 65 238 3.0
e 65 63 2.0
e 66 67 8.0
e 66 65 8.0
e 68 168 1.0
e 68 66 11.0
e 69 225 55.0
e 69 150 98.0
e 69 200 88.0
e 69 81 46.0
e 70 113 13.0
e 70 140 40.0
e 70 292 10.0
e 71 108 1.0
e 71 68 1.0
e 73 285 11.0
e 73 71 1.0
e 74 90 8.0
e 74 157 16.0
e 74 73 2.0
e 75 190 5.0
e 75 74 12.0
e 76 77 6.0
e 76 75 9.0
e 78 286 1.0
e 78 76 10.0
e 79 80 46.0
e 79 82 13.0
e 79 297 25.0
e 79 120 63.0
e 79 104 85.0
e 83 132 2.0
e 83 78 4.0
e 88 211 6.0
e 88 83 2.0
e 89 91 3.0
e 89 88 1.0
e 92 93 12.0
e 92 89 1.0
e 93 135 20.0
e 94 141 1.0
e 94 92 3.0
e 95 210 1.0
e 95 94 1.0
e 96 287 5.0
e 96 95 1.0
e 97 155 5.0
e 97 96 5.0
e 99 101 3.0
e 99 97 6.0
e 102 112 5.0
e 102 99 3.0
e 103 283 3.0
e 103 102 5.0
e 105 208 93.0
e 105 191 92.0
e 105 106 44.0
e 105 182 53.0
e 105 212 90.0
e 105 103 54.0
e 107 236 1.0
e 107 105 6.0
e 109 154 1.0
e 109 107 3.0
e 110 111 1.0
e 110 109 4.0
e 114 115 3.0
e 114 110 4.0
e 116 314 11.0
e 116 114 3.0
e 121 156 19.0
e 122 123 80.0
e 122 124 42.0
e 122 126 73.0
e 122 128 59.0
e 122 226 18.0
e 123 128 16.0
e 129 171 1.0
e 129 116 6.0
e 130 269 1.0
e 130 129 5.0
e 136 242 56.0
e 136 142 20.0
e 136 130 12.0
e 143 311 5.0
e 143 136 10.0
e 144 145 2.0
e 144 143 1.0
e 146 187 50.0
e 146 144 7.0
e 147 149 19.0
e 149 150 4.0
e 149 201 76.0
e 149 152 90.0
e 149 156 1.0
e 150 153 50.0
e 150 161 16.0
e 150 156 49.0
e 156 158 61.0
e 156 302 63.0
e 158 160 95.0
e 158 162 57.0
e 158 196 10.0
e 158 163 50.0
e 160 246 18.0
e 160 164 96.0
e 160 165 34.0
e 160 167 32.0
e 169 172 42.0
e 172 281 44.0
e 172 173 63.0
e 172 174 75.0
e 176 177 1.0
e 176 146 8.0
e 178 209 1.0
e 178 176 11.0
e 179 181 3.0
e 179 178 1.0
e 183 215 23.0
e 184 318 3.0
e 184 179 2.0
e 185 187 90.0
e 187 215 20.0
e 187 222 47.0
e 187 188 68.0
e 189 319 12.0
e 189 192 64.0
e 189 193 17.0
e 189 194 23.0
e 189 225 88.0
e 194 252 52.0
e 194 195 51.0
e 194 196 88.0
e 194 198 6.0
e 199 266 1.0
e 199 184 1.0
e 200 201 66.0
e 200 273 10.0
e 200 202 11.0
e 200 274 78.0
e 201 203 65.0
e 201 205 100.0
e 201 206 1.0
e 205 216 92.0
e 205 218 88.0
e 205 312 45.0
e 205 220 33.0
e 221 224 2.0
e 221 199 1.0
e 225 226 68.0
e 225 227 25.0
e 226 297 35.0
e 228 229 1.0
e 228 221 2.0
e 230 253 2.0
e 230 228 1.0
e 231 232 95.0
e 231 233 79.0
e 231 240 37.0
e 231 241 18.0
e 231 242 31.0
e 232 241 5.0
e 242 243 94.0
e 242 315 99.0
e 242 244 22.0
e 245 247 12.0
e 245 230 4.0
e 250 251 1.0
e 250 245 4.0
e 254 275 3.0
e 254 250 4.0
e 255 260 28.0
e 258 284 5.0
e 258 259 7.0
e 259 260 94.0
e 259 267 22.0
e 259 268 39.0
e 259 290 2.0
e 260 276 29.0
e 260 277 32.0
e 260 278 76.0
e 276 278 10.0
e 278 279 15.0
e 278 281 84.0
e 278 288 88.0
e 281 289 34.0
e 281 290 7.0
e 281 291 14.0
e 289 292 79.0
e 289 295 81.0
e 289 296 90.0
e 289 297 100.0
e 292 295 60.0
e 292 296 24.0
e 292 298 1.0
e 295 300 10.0
e 295 301 74.0
e 295 303 56.0
e 303 304 53.0
e 303 305 17.0
